QPLIB_3650
QBB
maximize
946 # number of variables
1848 # number of quadratic terms in objective
2 1 4.0
118 1 -4.0
442 1 -4.0
484 1 4.0
440 2 -4.0
461 2 -4.0
872 2 4.0
4 3 4.0
128 3 -4.0
438 3 -4.0
529 3 4.0
129 4 -4.0
284 4 4.0
477 4 -4.0
73 5 4.0
426 5 -4.0
732 5 4.0
771 5 -4.0
7 6 4.0
13 6 4.0
17 6 -4.0
415 6 -4.0
98 7 -4.0
433 7 -4.0
893 7 4.0
9 8 4.0
503 8 -4.0
504 8 4.0
562 8 -4.0
142 9 -4.0
456 9 -4.0
914 9 4.0
11 10 -4.0
20 10 4.0
773 10 4.0
776 10 -4.0
28 11 4.0
537 11 4.0
575 11 -4.0
84 12 -4.0
346 12 4.0
416 12 -4.0
836 12 4.0
85 13 -4.0
346 13 -4.0
589 13 4.0
73 14 -4.0
347 14 -4.0
696 14 4.0
824 14 4.0
16 15 4.0
386 15 4.0
517 15 -4.0
626 15 -4.0
290 16 4.0
367 16 -4.0
372 16 -4.0
100 17 -4.0
549 17 4.0
897 17 4.0
125 18 -4.0
434 18 4.0
498 18 4.0
523 18 -4.0
348 19 -4.0
426 19 -4.0
734 19 4.0
775 19 4.0
348 20 -4.0
662 20 4.0
737 20 -4.0
22 21 4.0
84 21 -4.0
381 21 4.0
471 21 -4.0
364 22 -4.0
370 22 -4.0
742 22 4.0
110 23 -4.0
346 23 -4.0
519 23 4.0
840 23 4.0
139 24 -4.0
418 24 4.0
474 24 4.0
556 24 -4.0
26 25 4.0
169 25 4.0
181 25 -4.0
682 25 -4.0
130 26 4.0
354 26 -4.0
362 26 -4.0
28 27 4.0
347 27 -4.0
620 27 4.0
778 27 -4.0
942 28 -4.0
945 28 -4.0
30 29 4.0
54 29 4.0
98 29 -4.0
451 29 -4.0
360 30 -4.0
367 30 -4.0
785 30 4.0
32 31 4.0
151 31 -4.0
404 31 4.0
596 31 -4.0
274 32 4.0
453 32 -4.0
795 32 -4.0
127 33 4.0
419 33 4.0
716 33 -4.0
801 33 -4.0
35 34 4.0
155 34 4.0
191 34 -4.0
646 34 -4.0
351 35 -4.0
359 35 -4.0
759 35 4.0
37 36 4.0
81 36 -4.0
567 36 4.0
685 36 -4.0
94 37 -4.0
155 37 -4.0
156 37 4.0
210 38 4.0
246 38 4.0
821 38 -4.0
881 38 -4.0
40 39 4.0
348 39 -4.0
579 39 4.0
827 39 -4.0
881 40 4.0
882 40 -4.0
885 40 -4.0
350 41 4.0
357 41 -4.0
364 41 -4.0
834 41 4.0
212 42 4.0
264 42 4.0
350 42 -4.0
374 42 -4.0
161 43 4.0
591 43 -4.0
842 43 4.0
899 43 -4.0
45 44 4.0
395 44 4.0
525 44 -4.0
638 44 -4.0
86 45 -4.0
265 45 4.0
266 45 -4.0
113 46 4.0
420 46 -4.0
435 46 4.0
501 46 -4.0
48 47 4.0
49 47 -4.0
144 47 4.0
200 47 -4.0
67 48 -4.0
356 48 -4.0
809 48 4.0
167 49 4.0
168 49 4.0
362 49 -4.0
51 50 4.0
96 50 -4.0
608 50 4.0
649 50 -4.0
106 51 -4.0
144 51 -4.0
145 51 4.0
353 52 4.0
355 52 -4.0
360 52 -4.0
891 52 4.0
218 53 4.0
353 53 -4.0
376 53 -4.0
545 53 4.0
353 54 -4.0
705 54 4.0
788 54 -4.0
104 55 4.0
436 55 -4.0
454 55 4.0
528 55 -4.0
57 56 4.0
481 56 -4.0
861 56 4.0
918 56 -4.0
396 57 -4.0
504 57 -4.0
645 57 4.0
59 58 -4.0
131 58 4.0
760 58 -4.0
861 58 4.0
180 59 4.0
366 59 -4.0
648 59 4.0
61 60 4.0
482 60 -4.0
606 60 -4.0
651 60 4.0
115 61 -4.0
131 61 -4.0
813 61 4.0
608 62 -4.0
610 62 4.0
651 62 4.0
653 62 -4.0
64 63 4.0
249 63 4.0
349 63 -4.0
497 63 -4.0
137 64 4.0
138 64 -4.0
521 64 -4.0
454 65 -4.0
475 65 4.0
850 65 4.0
908 65 -4.0
91 66 4.0
455 66 -4.0
475 66 4.0
560 66 -4.0
68 67 4.0
505 67 -4.0
921 67 4.0
388 68 -4.0
478 68 -4.0
681 68 4.0
70 69 -4.0
116 69 4.0
723 69 -4.0
921 69 4.0
190 70 4.0
369 70 -4.0
684 70 4.0
460 71 -4.0
566 71 -4.0
688 71 4.0
866 71 4.0
172 72 4.0
567 72 -4.0
688 72 4.0
690 72 -4.0
204 73 -4.0
446 73 4.0
75 74 4.0
241 74 4.0
358 74 -4.0
906 74 -4.0
123 75 4.0
124 75 -4.0
496 75 -4.0
476 76 -4.0
499 76 4.0
600 76 -4.0
641 76 4.0
438 77 -4.0
601 77 4.0
641 77 4.0
801 77 -4.0
314 78 4.0
351 78 4.0
382 78 -4.0
457 78 -4.0
441 79 -4.0
532 79 -4.0
726 79 4.0
926 79 4.0
81 80 -4.0
157 80 4.0
726 80 4.0
728 80 -4.0
237 81 4.0
533 81 4.0
83 82 -4.0
97 82 4.0
542 82 4.0
832 82 -4.0
583 83 4.0
585 84 4.0
786 84 4.0
634 85 -4.0
671 85 4.0
792 85 4.0
87 86 4.0
234 86 4.0
361 86 -4.0
473 87 -4.0
792 87 -4.0
902 87 4.0
234 88 -4.0
341 88 4.0
404 88 4.0
749 88 -4.0
500 89 -4.0
526 89 4.0
642 89 -4.0
677 89 4.0
91 90 -4.0
561 90 4.0
643 90 -4.0
677 90 4.0
252 91 -4.0
802 91 4.0
321 92 4.0
354 92 4.0
377 92 -4.0
439 92 -4.0
268 93 4.0
276 93 4.0
354 93 -4.0
439 93 -4.0
154 94 4.0
406 94 4.0
864 94 -4.0
96 95 -4.0
147 95 4.0
764 95 4.0
767 95 -4.0
244 96 4.0
508 96 4.0
99 97 4.0
352 97 -4.0
786 97 -4.0
99 98 4.0
546 98 4.0
741 99 -4.0
743 99 -4.0
632 100 4.0
673 100 -4.0
845 100 4.0
334 101 4.0
418 101 4.0
713 101 -4.0
715 101 -4.0
527 102 -4.0
558 102 4.0
678 102 -4.0
717 102 4.0
104 103 -4.0
197 103 4.0
679 103 -4.0
717 103 4.0
243 104 -4.0
857 104 4.0
152 105 -4.0
331 105 4.0
356 105 4.0
422 105 -4.0
143 106 4.0
809 106 -4.0
926 106 4.0
134 107 4.0
482 107 -4.0
814 107 4.0
817 107 -4.0
109 108 4.0
350 108 -4.0
415 108 -4.0
518 108 4.0
703 109 -4.0
704 109 -4.0
832 109 4.0
588 110 4.0
710 110 -4.0
902 110 4.0
220 111 -4.0
328 111 4.0
434 111 4.0
676 111 -4.0
113 112 -4.0
188 112 4.0
720 112 -4.0
750 112 4.0
235 113 -4.0
914 113 4.0
141 114 -4.0
336 114 4.0
359 114 4.0
405 114 -4.0
130 115 4.0
759 115 -4.0
866 115 4.0
648 116 4.0
649 116 -4.0
866 116 -4.0
460 117 -4.0
766 117 4.0
870 117 4.0
873 117 -4.0
183 118 4.0
692 118 -4.0
766 118 4.0
120 119 4.0
657 119 -4.0
823 119 4.0
882 119 -4.0
289 120 4.0
487 120 -4.0
656 120 -4.0
122 121 4.0
353 121 -4.0
432 121 -4.0
494 121 4.0
666 122 -4.0
667 122 -4.0
889 122 4.0
224 123 4.0
674 123 -4.0
901 123 -4.0
300 124 4.0
417 124 -4.0
589 124 4.0
455 125 -4.0
639 125 4.0
853 125 4.0
127 126 -4.0
177 126 4.0
753 126 -4.0
800 126 4.0
226 127 -4.0
284 127 4.0
129 128 4.0
757 128 4.0
918 128 -4.0
177 129 -4.0
285 129 4.0
722 130 -4.0
724 130 -4.0
606 131 -4.0
684 131 4.0
441 132 -4.0
816 132 4.0
930 132 4.0
933 132 -4.0
134 133 -4.0
173 133 4.0
463 133 -4.0
816 133 4.0
288 134 4.0
483 134 -4.0
136 135 4.0
614 135 -4.0
774 135 4.0
942 135 -4.0
279 136 4.0
465 136 -4.0
613 136 -4.0
520 137 4.0
711 137 -4.0
844 137 -4.0
248 138 -4.0
549 138 4.0
712 138 4.0
476 139 -4.0
598 139 4.0
798 139 4.0
164 140 4.0
501 140 -4.0
803 140 -4.0
856 140 4.0
142 141 4.0
754 141 -4.0
806 141 4.0
164 142 -4.0
275 142 4.0
302 143 -4.0
682 143 4.0
683 143 -4.0
199 144 4.0
566 144 -4.0
310 145 -4.0
440 145 4.0
762 145 -4.0
147 146 -4.0
158 146 4.0
485 146 -4.0
872 146 4.0
508 147 -4.0
934 147 4.0
270 148 4.0
445 148 -4.0
571 148 -4.0
734 148 4.0
358 149 4.0
550 149 4.0
748 149 -4.0
843 149 -4.0
240 150 -4.0
358 150 -4.0
519 150 4.0
675 150 4.0
162 151 4.0
500 151 -4.0
557 151 4.0
153 152 -4.0
860 152 4.0
916 152 4.0
197 153 -4.0
301 153 4.0
756 153 4.0
309 154 -4.0
646 154 4.0
647 154 -4.0
208 155 4.0
532 155 -4.0
253 156 -4.0
315 156 -4.0
930 156 4.0
324 157 4.0
373 157 -4.0
533 157 -4.0
373 158 -4.0
398 158 4.0
409 158 -4.0
263 159 4.0
425 159 -4.0
536 159 -4.0
696 159 4.0
361 160 4.0
590 160 4.0
793 160 -4.0
900 160 -4.0
233 161 -4.0
283 161 4.0
361 161 -4.0
196 162 4.0
525 162 -4.0
854 162 -4.0
196 163 -4.0
437 163 4.0
502 163 -4.0
599 163 4.0
165 164 4.0
437 164 -4.0
377 165 4.0
562 165 -4.0
858 165 -4.0
308 166 4.0
377 166 -4.0
561 166 -4.0
805 166 4.0
918 167 4.0
919 167 -4.0
922 167 -4.0
363 168 4.0
603 168 -4.0
605 168 -4.0
507 169 -4.0
685 169 -4.0
808 169 4.0
323 170 -4.0
685 170 4.0
686 170 -4.0
870 170 4.0
375 171 4.0
484 171 -4.0
508 171 4.0
871 171 -4.0
316 172 4.0
375 172 -4.0
568 172 -4.0
375 173 -4.0
390 173 4.0
424 173 -4.0
255 174 4.0
410 174 -4.0
511 174 -4.0
659 174 4.0
365 175 4.0
633 175 4.0
709 175 -4.0
846 175 -4.0
187 176 -4.0
456 176 4.0
477 176 -4.0
640 176 4.0
178 177 4.0
456 177 -4.0
382 178 4.0
529 178 -4.0
803 178 -4.0
313 179 4.0
320 179 4.0
382 179 -4.0
601 179 -4.0
322 180 -4.0
860 180 4.0
862 180 -4.0
649 181 -4.0
863 181 4.0
927 181 4.0
378 182 4.0
462 182 -4.0
533 182 4.0
815 182 -4.0
378 183 -4.0
384 183 4.0
444 183 -4.0
399 184 -4.0
487 184 -4.0
616 184 4.0
941 184 4.0
217 185 4.0
380 185 -4.0
490 185 4.0
513 185 -4.0
328 186 -4.0
522 186 4.0
903 186 4.0
904 186 -4.0
329 187 4.0
678 187 -4.0
798 187 4.0
189 188 4.0
477 188 -4.0
754 188 -4.0
388 189 4.0
504 189 -4.0
753 189 -4.0
332 190 -4.0
806 190 4.0
807 190 -4.0
606 191 -4.0
867 191 4.0
923 191 4.0
383 192 4.0
443 192 -4.0
568 192 4.0
765 192 -4.0
211 193 4.0
385 193 -4.0
468 193 4.0
539 193 -4.0
374 194 4.0
376 194 -4.0
334 195 -4.0
555 195 4.0
846 195 4.0
847 195 -4.0
335 196 4.0
716 196 -4.0
198 197 4.0
502 197 -4.0
396 198 4.0
478 198 -4.0
720 198 -4.0
277 199 -4.0
724 199 4.0
922 199 -4.0
236 200 4.0
566 200 -4.0
811 200 4.0
389 201 4.0
423 201 -4.0
609 201 4.0
727 201 -4.0
203 202 4.0
204 202 4.0
379 202 -4.0
391 202 -4.0
410 203 -4.0
485 203 4.0
534 203 -4.0
445 204 -4.0
537 204 4.0
306 205 -4.0
341 205 -4.0
595 205 4.0
793 205 4.0
301 206 -4.0
335 206 -4.0
561 206 4.0
913 206 4.0
405 207 4.0
457 207 -4.0
561 207 4.0
679 207 -4.0
481 208 -4.0
761 208 4.0
862 208 -4.0
397 209 4.0
408 209 -4.0
652 209 4.0
689 209 -4.0
399 210 4.0
425 210 -4.0
466 210 -4.0
401 211 -4.0
886 212 4.0
887 212 -4.0
890 212 -4.0
264 213 -4.0
311 213 4.0
744 213 4.0
834 213 -4.0
526 214 4.0
527 214 -4.0
528 214 -4.0
856 214 4.0
308 215 -4.0
342 215 -4.0
601 215 4.0
856 215 4.0
422 216 4.0
439 216 -4.0
601 216 4.0
643 216 -4.0
413 217 -4.0
829 218 4.0
830 218 -4.0
833 218 -4.0
305 219 4.0
545 219 -4.0
785 219 -4.0
788 219 4.0
250 220 -4.0
329 220 4.0
499 220 4.0
499 221 4.0
500 221 -4.0
501 221 -4.0
800 221 4.0
313 222 -4.0
643 222 4.0
800 222 4.0
801 222 -4.0
247 223 -4.0
298 223 4.0
742 223 -4.0
838 223 4.0
495 224 4.0
591 224 -4.0
790 224 -4.0
242 225 -4.0
318 225 4.0
475 225 4.0
639 225 -4.0
475 226 4.0
476 226 -4.0
750 226 4.0
461 227 -4.0
567 227 4.0
607 227 4.0
867 227 -4.0
229 228 -4.0
230 228 4.0
400 228 -4.0
446 228 4.0
279 229 4.0
466 229 4.0
512 229 -4.0
411 230 -4.0
449 230 4.0
469 230 -4.0
239 231 -4.0
290 231 -4.0
292 231 4.0
895 231 4.0
233 232 4.0
387 232 4.0
403 232 -4.0
520 232 -4.0
746 233 -4.0
902 233 4.0
597 234 -4.0
636 234 4.0
454 235 4.0
455 235 -4.0
717 235 4.0
603 236 4.0
683 236 -4.0
723 236 -4.0
441 237 -4.0
650 237 4.0
811 237 -4.0
289 238 4.0
411 238 -4.0
488 238 4.0
538 238 -4.0
784 239 4.0
833 239 -4.0
836 239 4.0
548 240 4.0
707 240 -4.0
845 240 4.0
242 241 -4.0
594 241 4.0
796 241 -4.0
713 242 4.0
909 242 4.0
435 243 4.0
436 243 -4.0
677 243 4.0
460 244 -4.0
686 244 4.0
762 244 -4.0
255 245 4.0
428 245 4.0
447 245 -4.0
941 245 -4.0
297 246 4.0
428 246 -4.0
577 246 -4.0
741 247 4.0
890 247 -4.0
893 247 4.0
587 248 4.0
670 248 -4.0
792 248 4.0
250 249 -4.0
554 249 4.0
850 249 -4.0
251 250 4.0
676 250 4.0
419 251 4.0
524 251 -4.0
527 251 -4.0
419 252 4.0
420 252 -4.0
641 252 4.0
407 253 4.0
723 253 4.0
724 253 -4.0
729 254 4.0
932 254 4.0
933 254 -4.0
936 254 -4.0
880 255 -4.0
882 255 -4.0
304 256 4.0
447 256 -4.0
537 256 4.0
618 256 -4.0
264 257 -4.0
415 257 4.0
432 257 -4.0
545 257 4.0
299 258 4.0
300 258 -4.0
523 258 -4.0
906 258 4.0
260 259 4.0
637 259 4.0
715 259 -4.0
906 259 -4.0
420 260 4.0
500 260 -4.0
907 260 -4.0
460 261 4.0
461 261 -4.0
766 261 -4.0
872 261 4.0
768 262 4.0
872 262 4.0
873 262 -4.0
875 262 -4.0
427 263 4.0
821 263 -4.0
823 263 -4.0
666 264 4.0
293 265 4.0
498 265 -4.0
712 265 -4.0
267 266 4.0
595 266 4.0
749 266 -4.0
436 267 4.0
476 267 -4.0
849 267 -4.0
916 268 4.0
917 268 -4.0
919 268 -4.0
816 269 4.0
817 269 -4.0
818 269 4.0
819 269 -4.0
446 270 4.0
772 270 -4.0
774 270 -4.0
451 271 4.0
625 271 4.0
627 271 -4.0
893 271 -4.0
273 272 4.0
518 272 4.0
707 272 -4.0
790 272 -4.0
893 273 4.0
894 273 -4.0
897 273 -4.0
283 274 4.0
474 274 -4.0
675 274 -4.0
322 275 -4.0
458 275 4.0
859 275 -4.0
277 276 4.0
458 276 -4.0
531 276 -4.0
602 277 -4.0
808 277 4.0
317 278 -4.0
766 278 4.0
767 278 -4.0
874 278 4.0
733 279 -4.0
735 279 -4.0
471 280 4.0
584 280 4.0
667 280 -4.0
836 280 -4.0
282 281 4.0
494 281 4.0
746 281 -4.0
841 281 -4.0
836 282 4.0
837 282 -4.0
840 282 -4.0
634 283 -4.0
636 283 -4.0
501 284 -4.0
503 284 -4.0
332 285 -4.0
480 285 4.0
804 285 -4.0
309 286 4.0
761 286 -4.0
763 286 -4.0
928 286 4.0
483 287 4.0
928 287 4.0
929 287 -4.0
931 287 -4.0
325 288 -4.0
728 288 -4.0
935 288 4.0
695 289 -4.0
697 289 -4.0
291 290 4.0
704 290 -4.0
544 291 4.0
624 291 -4.0
785 291 -4.0
547 292 4.0
787 292 -4.0
896 292 -4.0
591 293 4.0
592 293 -4.0
594 293 -4.0
337 294 -4.0
506 294 4.0
754 294 4.0
755 294 -4.0
302 295 4.0
724 295 -4.0
812 295 -4.0
868 295 4.0
508 296 4.0
868 296 4.0
869 296 -4.0
871 296 -4.0
657 297 4.0
658 297 -4.0
660 297 -4.0
586 298 4.0
743 298 -4.0
839 298 -4.0
551 299 4.0
552 299 -4.0
554 299 -4.0
340 300 4.0
794 300 -4.0
914 301 4.0
917 301 -4.0
684 302 4.0
686 302 -4.0
533 303 4.0
812 303 4.0
813 303 -4.0
815 303 -4.0
614 304 4.0
615 304 -4.0
617 304 -4.0
630 305 4.0
704 305 -4.0
789 305 -4.0
343 306 4.0
554 306 -4.0
792 306 4.0
559 307 4.0
909 307 4.0
910 307 -4.0
912 307 -4.0
857 308 4.0
859 308 -4.0
648 309 4.0
650 309 -4.0
568 310 4.0
763 310 4.0
765 310 -4.0
667 311 -4.0
669 311 4.0
745 311 -4.0
599 312 4.0
851 312 4.0
852 312 -4.0
855 312 -4.0
802 313 4.0
804 313 -4.0
603 314 -4.0
722 314 -4.0
919 314 4.0
609 315 4.0
725 315 4.0
727 315 -4.0
317 316 4.0
610 316 -4.0
819 316 -4.0
612 317 4.0
769 317 -4.0
640 318 4.0
797 318 -4.0
799 318 -4.0
644 319 4.0
751 319 4.0
752 319 -4.0
755 319 -4.0
322 320 4.0
644 320 -4.0
919 320 -4.0
322 321 4.0
647 321 -4.0
758 321 -4.0
652 323 4.0
687 323 4.0
689 323 -4.0
325 324 4.0
653 324 -4.0
875 324 -4.0
655 325 4.0
730 325 -4.0
327 326 4.0
662 326 -4.0
345 327 -4.0
944 327 4.0
945 327 -4.0
905 328 4.0
908 328 -4.0
749 329 -4.0
854 329 -4.0
680 330 4.0
718 330 4.0
719 330 -4.0
721 330 -4.0
332 331 4.0
683 331 -4.0
807 331 -4.0
805 332 4.0
699 333 -4.0
946 333 4.0
848 334 4.0
850 334 -4.0
719 335 4.0
912 335 -4.0
337 336 4.0
722 336 -4.0
862 336 -4.0
756 337 4.0
920 337 -4.0
339 338 4.0
737 338 -4.0
825 339 4.0
826 339 -4.0
828 339 -4.0
900 340 4.0
901 340 -4.0
904 340 -4.0
794 341 4.0
796 341 -4.0
752 342 4.0
854 342 4.0
855 342 -4.0
843 343 4.0
844 343 -4.0
847 343 -4.0
821 344 4.0
937 344 4.0
938 344 -4.0
940 344 -4.0
946 345 4.0
432 346 -4.0
776 347 -4.0
822 347 4.0
881 348 4.0
368 349 -4.0
453 349 -4.0
845 349 4.0
626 350 -4.0
479 351 -4.0
921 351 -4.0
493 352 -4.0
581 352 4.0
889 352 -4.0
861 354 -4.0
516 355 -4.0
622 355 4.0
832 355 -4.0
458 356 -4.0
682 356 -4.0
543 357 -4.0
663 357 4.0
889 357 -4.0
553 358 -4.0
480 359 -4.0
646 359 -4.0
582 360 -4.0
700 360 4.0
593 361 -4.0
506 362 -4.0
757 362 4.0
685 363 -4.0
924 363 -4.0
926 363 -4.0
623 364 -4.0
738 364 4.0
453 365 -4.0
591 365 -4.0
635 365 -4.0
530 366 -4.0
682 366 -4.0
806 366 4.0
664 367 -4.0
781 367 4.0
417 368 -4.0
672 368 4.0
903 368 -4.0
563 369 -4.0
646 369 -4.0
860 369 4.0
471 370 -4.0
701 370 -4.0
829 370 4.0
392 371 -4.0
779 371 -4.0
451 372 -4.0
739 372 -4.0
886 372 4.0
509 373 -4.0
932 373 4.0
471 374 -4.0
782 374 -4.0
534 375 -4.0
451 376 -4.0
830 376 -4.0
918 377 -4.0
569 378 -4.0
610 378 -4.0
425 379 -4.0
463 379 4.0
569 379 -4.0
430 380 -4.0
668 381 4.0
838 381 -4.0
892 381 4.0
860 382 -4.0
463 383 -4.0
611 383 -4.0
653 383 -4.0
399 384 -4.0
445 384 -4.0
611 384 -4.0
449 385 -4.0
628 386 4.0
835 386 4.0
895 386 -4.0
495 387 -4.0
629 387 -4.0
788 387 -4.0
644 388 -4.0
806 388 -4.0
485 389 -4.0
654 389 -4.0
690 389 -4.0
410 390 -4.0
465 390 -4.0
654 390 -4.0
426 391 -4.0
465 391 -4.0
574 391 4.0
393 392 -4.0
448 392 4.0
578 392 -4.0
469 393 -4.0
495 394 -4.0
548 394 -4.0
744 394 4.0
838 394 -4.0
435 395 -4.0
499 395 4.0
796 395 4.0
680 396 -4.0
757 396 -4.0
509 397 -4.0
691 397 -4.0
728 397 -4.0
425 398 -4.0
487 398 -4.0
691 398 -4.0
876 399 -4.0
428 400 -4.0
430 400 4.0
491 400 -4.0
402 401 -4.0
429 401 4.0
619 401 -4.0
491 402 -4.0
587 403 -4.0
705 403 4.0
895 403 -4.0
419 404 -4.0
526 404 4.0
505 405 -4.0
721 405 -4.0
407 406 -4.0
459 406 -4.0
605 406 -4.0
440 407 -4.0
482 407 -4.0
534 408 -4.0
729 408 -4.0
767 408 -4.0
445 409 -4.0
511 409 -4.0
729 409 -4.0
572 410 -4.0
412 411 -4.0
427 411 4.0
413 412 4.0
447 412 -4.0
514 412 -4.0
414 413 -4.0
944 413 -4.0
514 414 -4.0
452 415 -4.0
548 416 -4.0
631 416 -4.0
668 416 4.0
495 417 -4.0
631 417 -4.0
420 418 -4.0
558 418 4.0
438 421 -4.0
528 421 -4.0
858 421 -4.0
913 421 4.0
479 422 -4.0
755 422 -4.0
569 423 -4.0
768 423 -4.0
817 423 -4.0
465 424 -4.0
536 424 -4.0
768 424 -4.0
427 426 4.0
467 427 -4.0
429 428 -4.0
467 429 -4.0
540 429 -4.0
431 430 -4.0
884 430 -4.0
540 431 -4.0
472 432 -4.0
587 433 -4.0
628 433 4.0
670 433 -4.0
436 434 -4.0
911 434 4.0
909 435 4.0
560 437 -4.0
915 437 -4.0
916 438 4.0
804 439 -4.0
442 440 -4.0
442 441 -4.0
816 442 -4.0
611 443 -4.0
818 443 -4.0
873 443 -4.0
487 444 -4.0
571 444 -4.0
818 444 -4.0
489 446 -4.0
448 447 -4.0
489 448 -4.0
579 448 -4.0
450 449 -4.0
825 449 -4.0
579 450 -4.0
585 452 4.0
631 452 -4.0
707 452 -4.0
713 453 4.0
851 454 4.0
714 455 -4.0
600 456 -4.0
458 457 -4.0
859 457 -4.0
461 459 -4.0
507 459 -4.0
764 459 4.0
654 462 -4.0
874 462 -4.0
933 462 -4.0
464 463 -4.0
511 464 -4.0
613 464 -4.0
874 464 -4.0
773 466 -4.0
940 466 -4.0
468 467 -4.0
576 467 -4.0
512 468 -4.0
620 468 -4.0
470 469 -4.0
777 469 -4.0
620 470 -4.0
546 472 4.0
670 472 -4.0
746 472 -4.0
474 473 -4.0
676 473 4.0
903 473 -4.0
849 474 -4.0
642 477 -4.0
480 478 -4.0
917 478 -4.0
562 479 -4.0
564 479 4.0
564 480 -4.0
564 481 -4.0
604 481 -4.0
483 482 4.0
932 483 4.0
691 484 -4.0
935 484 -4.0
486 485 -4.0
536 486 -4.0
656 486 -4.0
935 486 -4.0
572 488 -4.0
822 488 -4.0
880 488 -4.0
490 489 -4.0
617 489 -4.0
538 490 -4.0
662 490 -4.0
492 491 -4.0
826 491 -4.0
662 492 -4.0
544 493 -4.0
547 494 -4.0
894 494 4.0
498 496 -4.0
637 496 4.0
846 496 -4.0
597 497 -4.0
635 497 -4.0
907 497 4.0
907 498 -4.0
503 502 -4.0
678 502 -4.0
754 503 -4.0
506 504 -4.0
529 505 -4.0
602 505 4.0
602 506 -4.0
723 507 -4.0
868 507 4.0
510 509 -4.0
876 509 -4.0
571 510 -4.0
694 510 -4.0
936 510 4.0
657 511 -4.0
513 512 -4.0
660 512 -4.0
577 513 -4.0
699 513 -4.0
515 514 -4.0
885 514 -4.0
699 515 -4.0
583 516 -4.0
544 517 -4.0
583 517 -4.0
742 517 -4.0
586 518 -4.0
837 518 4.0
551 519 -4.0
791 519 4.0
551 520 -4.0
841 520 -4.0
523 521 -4.0
595 521 4.0
793 521 -4.0
524 522 -4.0
593 522 4.0
849 522 4.0
524 523 -4.0
525 524 4.0
527 525 -4.0
715 526 4.0
914 528 -4.0
530 529 -4.0
645 530 -4.0
756 530 4.0
645 531 -4.0
684 531 -4.0
863 531 4.0
760 532 -4.0
812 532 4.0
535 534 -4.0
613 535 -4.0
731 535 -4.0
875 535 4.0
614 536 -4.0
772 537 -4.0
539 538 -4.0
697 538 -4.0
618 539 -4.0
737 539 -4.0
541 540 -4.0
945 540 -4.0
737 541 -4.0
624 542 4.0
624 543 -4.0
887 544 -4.0
703 545 4.0
630 546 -4.0
787 546 4.0
790 547 -4.0
898 547 -4.0
550 548 -4.0
552 549 -4.0
747 549 4.0
552 550 -4.0
898 550 -4.0
903 551 -4.0
846 552 -4.0
555 553 4.0
556 553 -4.0
748 553 -4.0
556 554 -4.0
557 555 -4.0
795 555 4.0
557 556 -4.0
909 557 -4.0
559 558 4.0
749 558 4.0
560 559 -4.0
913 559 4.0
857 560 -4.0
563 562 -4.0
681 563 -4.0
805 563 4.0
565 564 -4.0
648 565 -4.0
681 565 -4.0
923 565 4.0
763 566 4.0
568 567 4.0
570 569 -4.0
656 570 -4.0
770 570 -4.0
819 570 4.0
573 571 -4.0
575 572 -4.0
879 572 -4.0
575 573 -4.0
734 573 -4.0
770 573 -4.0
576 574 4.0
733 574 -4.0
881 574 4.0
576 575 -4.0
661 576 -4.0
578 577 -4.0
735 577 -4.0
661 578 -4.0
778 578 -4.0
580 579 -4.0
778 580 -4.0
665 581 4.0
665 582 -4.0
584 583 -4.0
665 584 -4.0
834 584 -4.0
669 585 -4.0
743 585 4.0
588 586 -4.0
841 586 -4.0
590 587 -4.0
590 588 -4.0
669 588 -4.0
592 589 -4.0
708 589 4.0
592 590 -4.0
793 592 -4.0
596 593 -4.0
711 593 -4.0
596 594 -4.0
847 594 -4.0
598 595 -4.0
598 596 -4.0
714 597 -4.0
851 597 4.0
851 598 -4.0
600 599 -4.0
911 599 4.0
802 600 -4.0
603 602 -4.0
605 604 -4.0
647 604 4.0
760 604 -4.0
607 605 -4.0
725 606 4.0
725 607 -4.0
810 607 -4.0
609 608 4.0
928 608 4.0
610 609 -4.0
612 611 -4.0
694 612 -4.0
820 612 -4.0
615 613 -4.0
731 614 -4.0
696 615 -4.0
820 615 -4.0
617 616 4.0
695 616 -4.0
822 616 4.0
698 617 -4.0
619 618 -4.0
774 618 -4.0
698 619 -4.0
827 619 -4.0
621 620 -4.0
827 621 -4.0
702 622 4.0
702 623 -4.0
625 624 -4.0
702 625 -4.0
891 625 -4.0
629 626 -4.0
744 626 4.0
629 627 -4.0
705 627 4.0
891 627 -4.0
704 628 4.0
706 628 -4.0
706 629 -4.0
632 630 -4.0
898 630 -4.0
633 631 -4.0
633 632 -4.0
706 632 -4.0
634 633 -4.0
748 634 -4.0
638 635 -4.0
674 635 -4.0
638 636 -4.0
904 636 -4.0
639 637 -4.0
794 637 4.0
639 638 -4.0
642 640 -4.0
853 640 4.0
751 641 4.0
751 642 -4.0
644 643 -4.0
647 645 -4.0
687 649 4.0
687 650 -4.0
865 650 -4.0
652 651 4.0
868 651 4.0
653 652 -4.0
655 654 -4.0
731 655 -4.0
878 655 -4.0
658 656 -4.0
694 657 -4.0
659 658 -4.0
878 658 -4.0
660 659 4.0
773 659 4.0
736 660 -4.0
823 661 -4.0
944 661 -4.0
740 663 4.0
740 664 -4.0
666 665 -4.0
740 666 -4.0
668 667 4.0
745 668 -4.0
671 669 -4.0
672 670 -4.0
672 671 -4.0
745 671 -4.0
673 672 -4.0
675 673 -4.0
711 673 -4.0
710 674 -4.0
905 674 4.0
905 675 -4.0
848 676 4.0
718 677 4.0
718 678 -4.0
680 679 -4.0
752 679 4.0
805 680 -4.0
683 681 -4.0
925 686 -4.0
814 687 4.0
689 688 4.0
812 688 4.0
690 689 -4.0
934 690 -4.0
693 691 -4.0
693 692 -4.0
876 692 -4.0
934 692 -4.0
770 693 -4.0
939 693 -4.0
695 694 -4.0
939 695 -4.0
697 696 4.0
775 697 -4.0
882 698 -4.0
884 698 -4.0
776 699 4.0
783 700 4.0
783 701 -4.0
703 702 -4.0
783 703 -4.0
789 705 -4.0
708 706 -4.0
709 707 -4.0
709 708 -4.0
789 708 -4.0
710 709 -4.0
712 710 -4.0
848 711 4.0
848 712 -4.0
905 713 4.0
716 714 -4.0
795 714 -4.0
716 715 -4.0
719 717 4.0
753 718 4.0
720 719 4.0
721 720 -4.0
756 721 -4.0
923 722 -4.0
764 725 4.0
727 726 4.0
763 726 4.0
728 727 -4.0
730 729 -4.0
732 730 -4.0
820 730 -4.0
733 731 -4.0
733 732 -4.0
877 732 -4.0
735 734 4.0
824 735 -4.0
825 736 -4.0
942 736 -4.0
944 736 -4.0
831 738 4.0
831 739 -4.0
741 740 -4.0
831 741 -4.0
743 742 -4.0
839 744 -4.0
747 745 -4.0
900 746 -4.0
839 747 -4.0
900 747 -4.0
794 748 4.0
752 750 4.0
912 750 -4.0
803 751 4.0
755 753 -4.0
920 757 4.0
759 758 -4.0
863 758 -4.0
920 758 -4.0
761 759 -4.0
762 760 4.0
762 761 -4.0
765 764 4.0
767 765 -4.0
769 768 -4.0
771 769 -4.0
878 769 -4.0
772 770 -4.0
772 771 -4.0
938 771 -4.0
883 773 4.0
883 774 -4.0
777 775 -4.0
884 775 -4.0
779 776 -4.0
779 777 -4.0
883 777 -4.0
780 778 -4.0
780 779 -4.0
888 781 4.0
888 782 -4.0
784 783 -4.0
786 784 -4.0
888 784 -4.0
787 785 -4.0
787 786 -4.0
896 788 -4.0
791 789 -4.0
843 790 -4.0
843 791 -4.0
896 791 -4.0
797 795 -4.0
797 796 -4.0
911 797 4.0
799 798 -4.0
910 798 4.0
801 799 -4.0
856 799 -4.0
855 800 -4.0
858 802 4.0
804 803 -4.0
808 807 -4.0
809 807 -4.0
810 808 4.0
810 809 -4.0
811 810 -4.0
813 811 -4.0
930 813 -4.0
815 814 4.0
929 814 -4.0
817 815 -4.0
937 818 -4.0
937 819 -4.0
821 820 -4.0
943 822 4.0
943 823 -4.0
825 824 -4.0
826 824 -4.0
943 826 -4.0
828 827 -4.0
833 831 -4.0
835 832 -4.0
835 833 -4.0
837 834 -4.0
837 835 -4.0
840 838 -4.0
842 839 -4.0
842 840 -4.0
844 841 -4.0
844 842 -4.0
847 845 4.0
852 849 -4.0
852 850 -4.0
853 852 4.0
855 853 -4.0
913 854 -4.0
915 857 4.0
859 858 -4.0
864 861 4.0
864 862 -4.0
865 863 4.0
865 864 -4.0
867 865 -4.0
869 866 4.0
869 867 -4.0
870 869 -4.0
871 870 4.0
873 871 -4.0
877 874 -4.0
877 875 -4.0
879 876 -4.0
879 877 -4.0
880 878 -4.0
880 879 -4.0
885 883 -4.0
946 884 4.0
946 885 -4.0
890 888 -4.0
892 889 -4.0
892 890 -4.0
894 891 -4.0
894 892 -4.0
897 895 -4.0
899 896 -4.0
899 897 -4.0
901 898 -4.0
901 899 -4.0
904 902 4.0
908 906 -4.0
910 907 -4.0
910 908 -4.0
912 911 -4.0
916 915 -4.0
917 915 -4.0
922 920 -4.0
924 921 4.0
924 922 -4.0
925 923 4.0
925 924 -4.0
927 925 -4.0
929 926 4.0
928 927 -4.0
929 927 -4.0
931 930 4.0
932 931 -4.0
933 931 -4.0
936 934 -4.0
938 935 -4.0
938 936 -4.0
939 937 -4.0
940 939 -4.0
941 940 -4.0
942 941 -4.0
945 943 -4.0
0.0 # default value for linear coefficients in objective
601 # number of non-default linear coefficients in objective
346 2.0
347 2.0
348 2.0
349 2.0
350 2.0
351 2.0
352 2.0
353 2.0
354 2.0
355 2.0
356 2.0
357 2.0
358 2.0
359 2.0
360 2.0
361 2.0
362 2.0
363 2.0
364 2.0
365 2.0
366 2.0
367 2.0
368 2.0
369 2.0
370 2.0
371 2.0
372 2.0
373 2.0
374 2.0
375 2.0
376 4.0
377 2.0
378 2.0
379 2.0
380 2.0
381 -2.0
382 2.0
383 2.0
384 2.0
385 2.0
386 -2.0
387 2.0
388 2.0
389 2.0
390 2.0
391 2.0
392 2.0
393 2.0
394 2.0
395 -2.0
396 2.0
397 2.0
398 2.0
399 2.0
400 2.0
401 2.0
402 2.0
403 2.0
404 -2.0
405 2.0
406 2.0
407 2.0
408 4.0
409 4.0
410 4.0
411 2.0
412 2.0
413 2.0
414 2.0
415 2.0
416 2.0
417 4.0
418 -2.0
419 -2.0
420 2.0
421 2.0
422 2.0
423 4.0
424 4.0
425 4.0
426 2.0
427 -2.0
428 2.0
429 2.0
430 2.0
431 2.0
432 4.0
433 2.0
434 -2.0
435 -2.0
436 2.0
437 2.0
438 2.0
439 4.0
440 2.0
441 4.0
442 4.0
443 4.0
444 4.0
445 4.0
446 -2.0
447 4.0
448 2.0
449 2.0
450 2.0
451 2.0
452 2.0
453 2.0
454 -2.0
455 4.0
456 2.0
457 4.0
458 2.0
459 2.0
460 2.0
461 4.0
462 4.0
463 2.0
464 4.0
465 4.0
466 2.0
467 4.0
468 2.0
469 4.0
470 2.0
471 2.0
472 2.0
473 2.0
474 2.0
475 -4.0
476 4.0
477 4.0
478 4.0
479 2.0
480 2.0
481 4.0
482 2.0
483 -2.0
484 2.0
485 2.0
486 4.0
487 4.0
488 2.0
489 4.0
490 2.0
491 4.0
492 2.0
493 2.0
494 -2.0
495 2.0
496 2.0
497 2.0
498 2.0
499 -4.0
500 4.0
501 4.0
502 4.0
503 4.0
504 2.0
505 2.0
506 2.0
507 2.0
508 -2.0
509 4.0
510 2.0
511 4.0
512 4.0
513 4.0
514 4.0
515 2.0
516 2.0
517 4.0
518 -2.0
519 -2.0
520 2.0
521 2.0
522 -2.0
523 4.0
524 2.0
525 2.0
526 -4.0
527 4.0
528 4.0
529 2.0
530 2.0
531 2.0
532 2.0
533 -2.0
534 4.0
535 2.0
536 4.0
537 -2.0
538 4.0
539 4.0
540 4.0
541 2.0
542 -2.0
543 2.0
544 2.0
545 -2.0
546 -2.0
547 2.0
548 2.0
549 -2.0
550 2.0
551 2.0
552 4.0
553 2.0
554 2.0
555 -2.0
556 4.0
557 2.0
558 -4.0
559 -2.0
560 4.0
561 -2.0
562 4.0
563 2.0
564 2.0
565 2.0
566 2.0
567 -2.0
568 -2.0
569 4.0
570 2.0
571 4.0
572 4.0
573 4.0
574 -2.0
575 4.0
576 2.0
577 4.0
578 4.0
579 2.0
580 2.0
581 -2.0
582 2.0
583 2.0
584 2.0
585 -2.0
586 2.0
587 2.0
588 2.0
589 -2.0
590 2.0
591 2.0
592 4.0
593 2.0
594 2.0
595 -2.0
596 4.0
597 2.0
598 2.0
599 -2.0
600 4.0
601 -2.0
602 2.0
603 2.0
604 2.0
605 4.0
606 2.0
607 2.0
608 -2.0
609 -2.0
610 2.0
611 4.0
612 2.0
613 4.0
614 2.0
615 4.0
616 -2.0
617 2.0
618 4.0
619 4.0
620 2.0
621 2.0
622 -2.0
623 2.0
624 2.0
625 2.0
626 2.0
627 2.0
628 -2.0
629 4.0
630 2.0
631 4.0
632 2.0
633 2.0
634 4.0
635 4.0
636 2.0
637 -2.0
638 4.0
639 2.0
640 -2.0
641 -4.0
642 4.0
643 2.0
644 2.0
645 2.0
646 2.0
647 2.0
648 -2.0
649 2.0
650 2.0
651 -4.0
652 -2.0
653 4.0
654 4.0
655 2.0
656 4.0
657 2.0
658 4.0
659 -2.0
660 2.0
661 4.0
662 2.0
663 -2.0
664 2.0
665 2.0
666 2.0
667 2.0
668 -2.0
669 2.0
670 4.0
671 2.0
672 2.0
673 4.0
674 2.0
675 2.0
676 -2.0
677 -4.0
678 4.0
679 2.0
680 2.0
681 2.0
682 2.0
683 4.0
684 -2.0
685 2.0
686 2.0
687 -2.0
688 -4.0
689 2.0
690 4.0
691 4.0
692 4.0
693 4.0
694 4.0
695 4.0
696 -2.0
697 2.0
698 4.0
699 2.0
700 -2.0
701 2.0
702 2.0
703 2.0
704 2.0
705 -2.0
706 4.0
707 4.0
708 2.0
709 4.0
710 4.0
711 2.0
712 2.0
713 -2.0
714 4.0
715 2.0
716 4.0
717 -4.0
718 -2.0
719 -2.0
720 2.0
721 4.0
722 4.0
723 2.0
724 2.0
725 -2.0
726 -4.0
727 2.0
728 4.0
729 2.0
730 4.0
731 4.0
732 2.0
733 4.0
734 -2.0
735 2.0
736 4.0
737 4.0
738 -2.0
739 2.0
740 2.0
741 2.0
742 2.0
743 2.0
744 -2.0
745 4.0
746 4.0
747 2.0
748 2.0
749 2.0
750 -2.0
751 -2.0
752 -2.0
753 2.0
754 2.0
755 4.0
756 -2.0
757 -2.0
758 4.0
759 2.0
760 2.0
761 2.0
762 2.0
763 -2.0
764 -4.0
765 2.0
766 -2.0
767 4.0
768 2.0
769 4.0
770 4.0
771 4.0
772 4.0
773 -2.0
774 2.0
775 2.0
776 2.0
777 4.0
778 4.0
779 4.0
780 2.0
781 -2.0
782 2.0
783 2.0
784 2.0
785 2.0
786 2.0
787 2.0
788 2.0
789 4.0
790 4.0
791 2.0
792 -2.0
793 2.0
794 -2.0
795 2.0
796 2.0
797 2.0
798 -2.0
799 4.0
800 -2.0
801 4.0
802 -2.0
803 2.0
804 4.0
805 -2.0
806 -2.0
807 4.0
808 -2.0
809 2.0
810 2.0
811 2.0
812 -2.0
813 2.0
814 -2.0
815 2.0
816 -2.0
817 4.0
818 2.0
819 2.0
820 4.0
821 2.0
822 -2.0
823 2.0
824 2.0
825 2.0
826 4.0
827 4.0
828 2.0
829 -2.0
830 2.0
831 2.0
832 2.0
833 4.0
834 2.0
835 2.0
836 -2.0
837 2.0
838 2.0
839 4.0
840 2.0
841 4.0
842 2.0
843 2.0
844 4.0
845 -4.0
846 2.0
847 2.0
848 -2.0
849 2.0
850 2.0
851 -2.0
852 2.0
853 -2.0
854 2.0
855 4.0
856 -2.0
857 -2.0
858 2.0
859 4.0
860 -2.0
861 -2.0
862 4.0
863 -2.0
864 2.0
865 2.0
866 -2.0
867 2.0
868 -4.0
869 2.0
870 -2.0
871 2.0
872 -4.0
873 4.0
874 2.0
875 2.0
876 4.0
877 4.0
878 4.0
879 4.0
880 4.0
881 -2.0
882 4.0
883 2.0
884 2.0
885 4.0
886 -2.0
887 2.0
888 2.0
889 2.0
890 4.0
891 2.0
892 2.0
893 -2.0
894 2.0
895 2.0
896 4.0
897 2.0
898 4.0
899 4.0
900 2.0
901 4.0
902 -4.0
903 2.0
904 2.0
905 -2.0
906 2.0
907 2.0
908 4.0
909 -2.0
910 2.0
911 -2.0
912 4.0
913 -2.0
914 -2.0
915 2.0
916 -2.0
917 4.0
918 2.0
919 2.0
920 2.0
921 -2.0
922 4.0
923 -2.0
924 2.0
925 2.0
926 -2.0
927 2.0
928 -2.0
929 2.0
930 -2.0
931 2.0
932 -2.0
933 4.0
934 2.0
935 2.0
936 2.0
937 2.0
938 4.0
939 4.0
940 4.0
941 2.0
942 4.0
943 2.0
944 2.0
945 4.0
946 -2.0
0.0 # objective constant
1.79769313486232E+308 # value for infinity
0.0 # default variable primal value in starting point
0 # number of non-default variable primal values in starting point
0.0 # default variable bound dual value in starting point
0 # number of non-default variable bound dual values in starting point
0 # number of non-default variable names
0 # number of non-default constraint names
